NAME : rnd23_50.tsp.tsp.optbc.tour
TYPE : TOUR
DIMENSION : 50
TOUR_SECTION
1
3
11
50
28
12
37
46
6
49
13
20
25
41
32
48
2
23
16
7
21
42
31
22
40
9
36
39
47
27
8
10
45
34
33
14
24
30
5
35
17
19
15
44
29
38
4
18
26
43
-1